(set-option :produce-models true)
(set-logic QF_LRA)
(set-info :notes | Strip-packing problem.|)
(declare-fun x0 () Real)
(declare-fun y0 () Real)
(declare-fun x1 () Real)
(declare-fun y1 () Real)
(declare-fun x2 () Real)
(declare-fun y2 () Real)
(declare-fun x3 () Real)
(declare-fun y3 () Real)
(declare-fun x4 () Real)
(declare-fun y4 () Real)
(declare-fun x5 () Real)
(declare-fun y5 () Real)
(declare-fun x6 () Real)
(declare-fun y6 () Real)
(declare-fun x7 () Real)
(declare-fun y7 () Real)
(declare-fun x8 () Real)
(declare-fun y8 () Real)
(declare-fun x9 () Real)
(declare-fun y9 () Real)
(declare-fun x10 () Real)
(declare-fun y10 () Real)
(declare-fun x11 () Real)
(declare-fun y11 () Real)
(declare-fun x12 () Real)
(declare-fun y12 () Real)
(declare-fun x13 () Real)
(declare-fun y13 () Real)
(declare-fun x14 () Real)
(declare-fun y14 () Real)
(declare-fun z () Real)
(declare-fun c () Real)
(assert (and (= c z) (and (>= x0 0) 
(and (>= y0 0) 
(and (>= x1 0) 
(and (>= y1 0) 
(and (>= x2 0) 
(and (>= y2 0) 
(and (>= x3 0) 
(and (>= y3 0) 
(and (>= x4 0) 
(and (>= y4 0) 
(and (>= x5 0) 
(and (>= y5 0) 
(and (>= x6 0) 
(and (>= y6 0) 
(and (>= x7 0) 
(and (>= y7 0) 
(and (>= x8 0) 
(and (>= y8 0) 
(and (>= x9 0) 
(and (>= y9 0) 
(and (>= x10 0) 
(and (>= y10 0) 
(and (>= x11 0) 
(and (>= y11 0) 
(and (>= x12 0) 
(and (>= y12 0) 
(and (>= x13 0) 
(and (>= y13 0) 
(and (>= x14 0) 
(and (>= y14 0) 
(and (>= z 0) 
(and (>= c 0) 
(and (<= (+ x0 0.6209245792) z) 
(and (<= 0.8862690727 y0) 
(and (<= y0 1.9364916731) 
(and (<= x0 (- 3.4261823815 0.6209245792)) 
(and (>= x0 0) 
(and (<= (+ x1 0.0008714608) z) 
(and (<= 0.7906023681 y1) 
(and (<= y1 1.9364916731) 
(and (<= x1 (- 3.4261823815 0.0008714608)) 
(and (>= x1 0) 
(and (<= (+ x2 0.9104343766) z) 
(and (<= 0.7658170405 y2) 
(and (<= y2 1.9364916731) 
(and (<= x2 (- 3.4261823815 0.9104343766)) 
(and (>= x2 0) 
(and (<= (+ x3 0.9148147319) z) 
(and (<= 0.7525590151 y3) 
(and (<= y3 1.9364916731) 
(and (<= x3 (- 3.4261823815 0.9148147319)) 
(and (>= x3 0) 
(and (<= (+ x4 0.9800086938) z) 
(and (<= 0.733232539 y4) 
(and (<= y4 1.9364916731) 
(and (<= x4 (- 3.4261823815 0.9800086938)) 
(and (>= x4 0) 
(and (<= (+ x5 0.3581315649) z) 
(and (<= 0.5408662372 y5) 
(and (<= y5 1.9364916731) 
(and (<= x5 (- 3.4261823815 0.3581315649)) 
(and (>= x5 0) 
(and (<= (+ x6 0.5468675689) z) 
(and (<= 0.5050173061 y6) 
(and (<= y6 1.9364916731) 
(and (<= x6 (- 3.4261823815 0.5468675689)) 
(and (>= x6 0) 
(and (<= (+ x7 0.9369113193) z) 
(and (<= 0.3798320381 y7) 
(and (<= y7 1.9364916731) 
(and (<= x7 (- 3.4261823815 0.9369113193)) 
(and (>= x7 0) 
(and (<= (+ x8 0.6227948658) z) 
(and (<= 0.3391568284 y8) 
(and (<= y8 1.9364916731) 
(and (<= x8 (- 3.4261823815 0.6227948658)) 
(and (>= x8 0) 
(and (<= (+ x9 0.6615614129) z) 
(and (<= 0.3086994284 y9) 
(and (<= y9 1.9364916731) 
(and (<= x9 (- 3.4261823815 0.6615614129)) 
(and (>= x9 0) 
(and (<= (+ x10 0.8736691013) z) 
(and (<= 0.2951830771 y10) 
(and (<= y10 1.9364916731) 
(and (<= x10 (- 3.4261823815 0.8736691013)) 
(and (>= x10 0) 
(and (<= (+ x11 0.8077691578) z) 
(and (<= 0.1694787264 y11) 
(and (<= y11 1.9364916731) 
(and (<= x11 (- 3.4261823815 0.8077691578)) 
(and (>= x11 0) 
(and (<= (+ x12 0.592336137) z) 
(and (<= 0.0979356996 y12) 
(and (<= y12 1.9364916731) 
(and (<= x12 (- 3.4261823815 0.592336137)) 
(and (>= x12 0) 
(and (<= (+ x13 0.7732941406) z) 
(and (<= 0.0377049642 y13) 
(and (<= y13 1.9364916731) 
(and (<= x13 (- 3.4261823815 0.7732941406)) 
(and (>= x13 0) 
(and (<= (+ x14 0.741643294) z) 
(and (<= 0.0083976029 y14) 
(and (<= y14 1.9364916731) 
(and (<= x14 (- 3.4261823815 0.741643294)) 
(and (>= x14 0) 
(and (<= c 3.4261823815) 
(and (or (<= (+ x0 0.6209245792) x1) (or (<= (+ x1 0.0008714608) x0) (or (>= (- y0 0.8862690727) y1) (or (>= (- y1 0.7906023681) y0))))) 
(and (or (<= (+ x0 0.6209245792) x2) (or (<= (+ x2 0.9104343766) x0) (or (>= (- y0 0.8862690727) y2) (or (>= (- y2 0.7658170405) y0))))) 
(and (or (<= (+ x0 0.6209245792) x3) (or (<= (+ x3 0.9148147319) x0) (or (>= (- y0 0.8862690727) y3) (or (>= (- y3 0.7525590151) y0))))) 
(and (or (<= (+ x0 0.6209245792) x4) (or (<= (+ x4 0.9800086938) x0) (or (>= (- y0 0.8862690727) y4) (or (>= (- y4 0.733232539) y0))))) 
(and (or (<= (+ x0 0.6209245792) x5) (or (<= (+ x5 0.3581315649) x0) (or (>= (- y0 0.8862690727) y5) (or (>= (- y5 0.5408662372) y0))))) 
(and (or (<= (+ x0 0.6209245792) x6) (or (<= (+ x6 0.5468675689) x0) (or (>= (- y0 0.8862690727) y6) (or (>= (- y6 0.5050173061) y0))))) 
(and (or (<= (+ x0 0.6209245792) x7) (or (<= (+ x7 0.9369113193) x0) (or (>= (- y0 0.8862690727) y7) (or (>= (- y7 0.3798320381) y0))))) 
(and (or (<= (+ x0 0.6209245792) x8) (or (<= (+ x8 0.6227948658) x0) (or (>= (- y0 0.8862690727) y8) (or (>= (- y8 0.3391568284) y0))))) 
(and (or (<= (+ x0 0.6209245792) x9) (or (<= (+ x9 0.6615614129) x0) (or (>= (- y0 0.8862690727) y9) (or (>= (- y9 0.3086994284) y0))))) 
(and (or (<= (+ x0 0.6209245792) x10) (or (<= (+ x10 0.8736691013) x0) (or (>= (- y0 0.8862690727) y10) (or (>= (- y10 0.2951830771) y0))))) 
(and (or (<= (+ x0 0.6209245792) x11) (or (<= (+ x11 0.8077691578) x0) (or (>= (- y0 0.8862690727) y11) (or (>= (- y11 0.1694787264) y0))))) 
(and (or (<= (+ x0 0.6209245792) x12) (or (<= (+ x12 0.592336137) x0) (or (>= (- y0 0.8862690727) y12) (or (>= (- y12 0.0979356996) y0))))) 
(and (or (<= (+ x0 0.6209245792) x13) (or (<= (+ x13 0.7732941406) x0) (or (>= (- y0 0.8862690727) y13) (or (>= (- y13 0.0377049642) y0))))) 
(and (or (<= (+ x0 0.6209245792) x14) (or (<= (+ x14 0.741643294) x0) (or (>= (- y0 0.8862690727) y14) (or (>= (- y14 0.0083976029) y0))))) 
(and (or (<= (+ x1 0.0008714608) x2) (or (<= (+ x2 0.9104343766) x1) (or (>= (- y1 0.7906023681) y2) (or (>= (- y2 0.7658170405) y1))))) 
(and (or (<= (+ x1 0.0008714608) x3) (or (<= (+ x3 0.9148147319) x1) (or (>= (- y1 0.7906023681) y3) (or (>= (- y3 0.7525590151) y1))))) 
(and (or (<= (+ x1 0.0008714608) x4) (or (<= (+ x4 0.9800086938) x1) (or (>= (- y1 0.7906023681) y4) (or (>= (- y4 0.733232539) y1))))) 
(and (or (<= (+ x1 0.0008714608) x5) (or (<= (+ x5 0.3581315649) x1) (or (>= (- y1 0.7906023681) y5) (or (>= (- y5 0.5408662372) y1))))) 
(and (or (<= (+ x1 0.0008714608) x6) (or (<= (+ x6 0.5468675689) x1) (or (>= (- y1 0.7906023681) y6) (or (>= (- y6 0.5050173061) y1))))) 
(and (or (<= (+ x1 0.0008714608) x7) (or (<= (+ x7 0.9369113193) x1) (or (>= (- y1 0.7906023681) y7) (or (>= (- y7 0.3798320381) y1))))) 
(and (or (<= (+ x1 0.0008714608) x8) (or (<= (+ x8 0.6227948658) x1) (or (>= (- y1 0.7906023681) y8) (or (>= (- y8 0.3391568284) y1))))) 
(and (or (<= (+ x1 0.0008714608) x9) (or (<= (+ x9 0.6615614129) x1) (or (>= (- y1 0.7906023681) y9) (or (>= (- y9 0.3086994284) y1))))) 
(and (or (<= (+ x1 0.0008714608) x10) (or (<= (+ x10 0.8736691013) x1) (or (>= (- y1 0.7906023681) y10) (or (>= (- y10 0.2951830771) y1))))) 
(and (or (<= (+ x1 0.0008714608) x11) (or (<= (+ x11 0.8077691578) x1) (or (>= (- y1 0.7906023681) y11) (or (>= (- y11 0.1694787264) y1))))) 
(and (or (<= (+ x1 0.0008714608) x12) (or (<= (+ x12 0.592336137) x1) (or (>= (- y1 0.7906023681) y12) (or (>= (- y12 0.0979356996) y1))))) 
(and (or (<= (+ x1 0.0008714608) x13) (or (<= (+ x13 0.7732941406) x1) (or (>= (- y1 0.7906023681) y13) (or (>= (- y13 0.0377049642) y1))))) 
(and (or (<= (+ x1 0.0008714608) x14) (or (<= (+ x14 0.741643294) x1) (or (>= (- y1 0.7906023681) y14) (or (>= (- y14 0.0083976029) y1))))) 
(and (or (<= (+ x2 0.9104343766) x3) (or (<= (+ x3 0.9148147319) x2) (or (>= (- y2 0.7658170405) y3) (or (>= (- y3 0.7525590151) y2))))) 
(and (or (<= (+ x2 0.9104343766) x4) (or (<= (+ x4 0.9800086938) x2) (or (>= (- y2 0.7658170405) y4) (or (>= (- y4 0.733232539) y2))))) 
(and (or (<= (+ x2 0.9104343766) x5) (or (<= (+ x5 0.3581315649) x2) (or (>= (- y2 0.7658170405) y5) (or (>= (- y5 0.5408662372) y2))))) 
(and (or (<= (+ x2 0.9104343766) x6) (or (<= (+ x6 0.5468675689) x2) (or (>= (- y2 0.7658170405) y6) (or (>= (- y6 0.5050173061) y2))))) 
(and (or (<= (+ x2 0.9104343766) x7) (or (<= (+ x7 0.9369113193) x2) (or (>= (- y2 0.7658170405) y7) (or (>= (- y7 0.3798320381) y2))))) 
(and (or (<= (+ x2 0.9104343766) x8) (or (<= (+ x8 0.6227948658) x2) (or (>= (- y2 0.7658170405) y8) (or (>= (- y8 0.3391568284) y2))))) 
(and (or (<= (+ x2 0.9104343766) x9) (or (<= (+ x9 0.6615614129) x2) (or (>= (- y2 0.7658170405) y9) (or (>= (- y9 0.3086994284) y2))))) 
(and (or (<= (+ x2 0.9104343766) x10) (or (<= (+ x10 0.8736691013) x2) (or (>= (- y2 0.7658170405) y10) (or (>= (- y10 0.2951830771) y2))))) 
(and (or (<= (+ x2 0.9104343766) x11) (or (<= (+ x11 0.8077691578) x2) (or (>= (- y2 0.7658170405) y11) (or (>= (- y11 0.1694787264) y2))))) 
(and (or (<= (+ x2 0.9104343766) x12) (or (<= (+ x12 0.592336137) x2) (or (>= (- y2 0.7658170405) y12) (or (>= (- y12 0.0979356996) y2))))) 
(and (or (<= (+ x2 0.9104343766) x13) (or (<= (+ x13 0.7732941406) x2) (or (>= (- y2 0.7658170405) y13) (or (>= (- y13 0.0377049642) y2))))) 
(and (or (<= (+ x2 0.9104343766) x14) (or (<= (+ x14 0.741643294) x2) (or (>= (- y2 0.7658170405) y14) (or (>= (- y14 0.0083976029) y2))))) 
(and (or (<= (+ x3 0.9148147319) x4) (or (<= (+ x4 0.9800086938) x3) (or (>= (- y3 0.7525590151) y4) (or (>= (- y4 0.733232539) y3))))) 
(and (or (<= (+ x3 0.9148147319) x5) (or (<= (+ x5 0.3581315649) x3) (or (>= (- y3 0.7525590151) y5) (or (>= (- y5 0.5408662372) y3))))) 
(and (or (<= (+ x3 0.9148147319) x6) (or (<= (+ x6 0.5468675689) x3) (or (>= (- y3 0.7525590151) y6) (or (>= (- y6 0.5050173061) y3))))) 
(and (or (<= (+ x3 0.9148147319) x7) (or (<= (+ x7 0.9369113193) x3) (or (>= (- y3 0.7525590151) y7) (or (>= (- y7 0.3798320381) y3))))) 
(and (or (<= (+ x3 0.9148147319) x8) (or (<= (+ x8 0.6227948658) x3) (or (>= (- y3 0.7525590151) y8) (or (>= (- y8 0.3391568284) y3))))) 
(and (or (<= (+ x3 0.9148147319) x9) (or (<= (+ x9 0.6615614129) x3) (or (>= (- y3 0.7525590151) y9) (or (>= (- y9 0.3086994284) y3))))) 
(and (or (<= (+ x3 0.9148147319) x10) (or (<= (+ x10 0.8736691013) x3) (or (>= (- y3 0.7525590151) y10) (or (>= (- y10 0.2951830771) y3))))) 
(and (or (<= (+ x3 0.9148147319) x11) (or (<= (+ x11 0.8077691578) x3) (or (>= (- y3 0.7525590151) y11) (or (>= (- y11 0.1694787264) y3))))) 
(and (or (<= (+ x3 0.9148147319) x12) (or (<= (+ x12 0.592336137) x3) (or (>= (- y3 0.7525590151) y12) (or (>= (- y12 0.0979356996) y3))))) 
(and (or (<= (+ x3 0.9148147319) x13) (or (<= (+ x13 0.7732941406) x3) (or (>= (- y3 0.7525590151) y13) (or (>= (- y13 0.0377049642) y3))))) 
(and (or (<= (+ x3 0.9148147319) x14) (or (<= (+ x14 0.741643294) x3) (or (>= (- y3 0.7525590151) y14) (or (>= (- y14 0.0083976029) y3))))) 
(and (or (<= (+ x4 0.9800086938) x5) (or (<= (+ x5 0.3581315649) x4) (or (>= (- y4 0.733232539) y5) (or (>= (- y5 0.5408662372) y4))))) 
(and (or (<= (+ x4 0.9800086938) x6) (or (<= (+ x6 0.5468675689) x4) (or (>= (- y4 0.733232539) y6) (or (>= (- y6 0.5050173061) y4))))) 
(and (or (<= (+ x4 0.9800086938) x7) (or (<= (+ x7 0.9369113193) x4) (or (>= (- y4 0.733232539) y7) (or (>= (- y7 0.3798320381) y4))))) 
(and (or (<= (+ x4 0.9800086938) x8) (or (<= (+ x8 0.6227948658) x4) (or (>= (- y4 0.733232539) y8) (or (>= (- y8 0.3391568284) y4))))) 
(and (or (<= (+ x4 0.9800086938) x9) (or (<= (+ x9 0.6615614129) x4) (or (>= (- y4 0.733232539) y9) (or (>= (- y9 0.3086994284) y4))))) 
(and (or (<= (+ x4 0.9800086938) x10) (or (<= (+ x10 0.8736691013) x4) (or (>= (- y4 0.733232539) y10) (or (>= (- y10 0.2951830771) y4))))) 
(and (or (<= (+ x4 0.9800086938) x11) (or (<= (+ x11 0.8077691578) x4) (or (>= (- y4 0.733232539) y11) (or (>= (- y11 0.1694787264) y4))))) 
(and (or (<= (+ x4 0.9800086938) x12) (or (<= (+ x12 0.592336137) x4) (or (>= (- y4 0.733232539) y12) (or (>= (- y12 0.0979356996) y4))))) 
(and (or (<= (+ x4 0.9800086938) x13) (or (<= (+ x13 0.7732941406) x4) (or (>= (- y4 0.733232539) y13) (or (>= (- y13 0.0377049642) y4))))) 
(and (or (<= (+ x4 0.9800086938) x14) (or (<= (+ x14 0.741643294) x4) (or (>= (- y4 0.733232539) y14) (or (>= (- y14 0.0083976029) y4))))) 
(and (or (<= (+ x5 0.3581315649) x6) (or (<= (+ x6 0.5468675689) x5) (or (>= (- y5 0.5408662372) y6) (or (>= (- y6 0.5050173061) y5))))) 
(and (or (<= (+ x5 0.3581315649) x7) (or (<= (+ x7 0.9369113193) x5) (or (>= (- y5 0.5408662372) y7) (or (>= (- y7 0.3798320381) y5))))) 
(and (or (<= (+ x5 0.3581315649) x8) (or (<= (+ x8 0.6227948658) x5) (or (>= (- y5 0.5408662372) y8) (or (>= (- y8 0.3391568284) y5))))) 
(and (or (<= (+ x5 0.3581315649) x9) (or (<= (+ x9 0.6615614129) x5) (or (>= (- y5 0.5408662372) y9) (or (>= (- y9 0.3086994284) y5))))) 
(and (or (<= (+ x5 0.3581315649) x10) (or (<= (+ x10 0.8736691013) x5) (or (>= (- y5 0.5408662372) y10) (or (>= (- y10 0.2951830771) y5))))) 
(and (or (<= (+ x5 0.3581315649) x11) (or (<= (+ x11 0.8077691578) x5) (or (>= (- y5 0.5408662372) y11) (or (>= (- y11 0.1694787264) y5))))) 
(and (or (<= (+ x5 0.3581315649) x12) (or (<= (+ x12 0.592336137) x5) (or (>= (- y5 0.5408662372) y12) (or (>= (- y12 0.0979356996) y5))))) 
(and (or (<= (+ x5 0.3581315649) x13) (or (<= (+ x13 0.7732941406) x5) (or (>= (- y5 0.5408662372) y13) (or (>= (- y13 0.0377049642) y5))))) 
(and (or (<= (+ x5 0.3581315649) x14) (or (<= (+ x14 0.741643294) x5) (or (>= (- y5 0.5408662372) y14) (or (>= (- y14 0.0083976029) y5))))) 
(and (or (<= (+ x6 0.5468675689) x7) (or (<= (+ x7 0.9369113193) x6) (or (>= (- y6 0.5050173061) y7) (or (>= (- y7 0.3798320381) y6))))) 
(and (or (<= (+ x6 0.5468675689) x8) (or (<= (+ x8 0.6227948658) x6) (or (>= (- y6 0.5050173061) y8) (or (>= (- y8 0.3391568284) y6))))) 
(and (or (<= (+ x6 0.5468675689) x9) (or (<= (+ x9 0.6615614129) x6) (or (>= (- y6 0.5050173061) y9) (or (>= (- y9 0.3086994284) y6))))) 
(and (or (<= (+ x6 0.5468675689) x10) (or (<= (+ x10 0.8736691013) x6) (or (>= (- y6 0.5050173061) y10) (or (>= (- y10 0.2951830771) y6))))) 
(and (or (<= (+ x6 0.5468675689) x11) (or (<= (+ x11 0.8077691578) x6) (or (>= (- y6 0.5050173061) y11) (or (>= (- y11 0.1694787264) y6))))) 
(and (or (<= (+ x6 0.5468675689) x12) (or (<= (+ x12 0.592336137) x6) (or (>= (- y6 0.5050173061) y12) (or (>= (- y12 0.0979356996) y6))))) 
(and (or (<= (+ x6 0.5468675689) x13) (or (<= (+ x13 0.7732941406) x6) (or (>= (- y6 0.5050173061) y13) (or (>= (- y13 0.0377049642) y6))))) 
(and (or (<= (+ x6 0.5468675689) x14) (or (<= (+ x14 0.741643294) x6) (or (>= (- y6 0.5050173061) y14) (or (>= (- y14 0.0083976029) y6))))) 
(and (or (<= (+ x7 0.9369113193) x8) (or (<= (+ x8 0.6227948658) x7) (or (>= (- y7 0.3798320381) y8) (or (>= (- y8 0.3391568284) y7))))) 
(and (or (<= (+ x7 0.9369113193) x9) (or (<= (+ x9 0.6615614129) x7) (or (>= (- y7 0.3798320381) y9) (or (>= (- y9 0.3086994284) y7))))) 
(and (or (<= (+ x7 0.9369113193) x10) (or (<= (+ x10 0.8736691013) x7) (or (>= (- y7 0.3798320381) y10) (or (>= (- y10 0.2951830771) y7))))) 
(and (or (<= (+ x7 0.9369113193) x11) (or (<= (+ x11 0.8077691578) x7) (or (>= (- y7 0.3798320381) y11) (or (>= (- y11 0.1694787264) y7))))) 
(and (or (<= (+ x7 0.9369113193) x12) (or (<= (+ x12 0.592336137) x7) (or (>= (- y7 0.3798320381) y12) (or (>= (- y12 0.0979356996) y7))))) 
(and (or (<= (+ x7 0.9369113193) x13) (or (<= (+ x13 0.7732941406) x7) (or (>= (- y7 0.3798320381) y13) (or (>= (- y13 0.0377049642) y7))))) 
(and (or (<= (+ x7 0.9369113193) x14) (or (<= (+ x14 0.741643294) x7) (or (>= (- y7 0.3798320381) y14) (or (>= (- y14 0.0083976029) y7))))) 
(and (or (<= (+ x8 0.6227948658) x9) (or (<= (+ x9 0.6615614129) x8) (or (>= (- y8 0.3391568284) y9) (or (>= (- y9 0.3086994284) y8))))) 
(and (or (<= (+ x8 0.6227948658) x10) (or (<= (+ x10 0.8736691013) x8) (or (>= (- y8 0.3391568284) y10) (or (>= (- y10 0.2951830771) y8))))) 
(and (or (<= (+ x8 0.6227948658) x11) (or (<= (+ x11 0.8077691578) x8) (or (>= (- y8 0.3391568284) y11) (or (>= (- y11 0.1694787264) y8))))) 
(and (or (<= (+ x8 0.6227948658) x12) (or (<= (+ x12 0.592336137) x8) (or (>= (- y8 0.3391568284) y12) (or (>= (- y12 0.0979356996) y8))))) 
(and (or (<= (+ x8 0.6227948658) x13) (or (<= (+ x13 0.7732941406) x8) (or (>= (- y8 0.3391568284) y13) (or (>= (- y13 0.0377049642) y8))))) 
(and (or (<= (+ x8 0.6227948658) x14) (or (<= (+ x14 0.741643294) x8) (or (>= (- y8 0.3391568284) y14) (or (>= (- y14 0.0083976029) y8))))) 
(and (or (<= (+ x9 0.6615614129) x10) (or (<= (+ x10 0.8736691013) x9) (or (>= (- y9 0.3086994284) y10) (or (>= (- y10 0.2951830771) y9))))) 
(and (or (<= (+ x9 0.6615614129) x11) (or (<= (+ x11 0.8077691578) x9) (or (>= (- y9 0.3086994284) y11) (or (>= (- y11 0.1694787264) y9))))) 
(and (or (<= (+ x9 0.6615614129) x12) (or (<= (+ x12 0.592336137) x9) (or (>= (- y9 0.3086994284) y12) (or (>= (- y12 0.0979356996) y9))))) 
(and (or (<= (+ x9 0.6615614129) x13) (or (<= (+ x13 0.7732941406) x9) (or (>= (- y9 0.3086994284) y13) (or (>= (- y13 0.0377049642) y9))))) 
(and (or (<= (+ x9 0.6615614129) x14) (or (<= (+ x14 0.741643294) x9) (or (>= (- y9 0.3086994284) y14) (or (>= (- y14 0.0083976029) y9))))) 
(and (or (<= (+ x10 0.8736691013) x11) (or (<= (+ x11 0.8077691578) x10) (or (>= (- y10 0.2951830771) y11) (or (>= (- y11 0.1694787264) y10))))) 
(and (or (<= (+ x10 0.8736691013) x12) (or (<= (+ x12 0.592336137) x10) (or (>= (- y10 0.2951830771) y12) (or (>= (- y12 0.0979356996) y10))))) 
(and (or (<= (+ x10 0.8736691013) x13) (or (<= (+ x13 0.7732941406) x10) (or (>= (- y10 0.2951830771) y13) (or (>= (- y13 0.0377049642) y10))))) 
(and (or (<= (+ x10 0.8736691013) x14) (or (<= (+ x14 0.741643294) x10) (or (>= (- y10 0.2951830771) y14) (or (>= (- y14 0.0083976029) y10))))) 
(and (or (<= (+ x11 0.8077691578) x12) (or (<= (+ x12 0.592336137) x11) (or (>= (- y11 0.1694787264) y12) (or (>= (- y12 0.0979356996) y11))))) 
(and (or (<= (+ x11 0.8077691578) x13) (or (<= (+ x13 0.7732941406) x11) (or (>= (- y11 0.1694787264) y13) (or (>= (- y13 0.0377049642) y11))))) 
(and (or (<= (+ x11 0.8077691578) x14) (or (<= (+ x14 0.741643294) x11) (or (>= (- y11 0.1694787264) y14) (or (>= (- y14 0.0083976029) y11))))) 
(and (or (<= (+ x12 0.592336137) x13) (or (<= (+ x13 0.7732941406) x12) (or (>= (- y12 0.0979356996) y13) (or (>= (- y13 0.0377049642) y12))))) 
(and (or (<= (+ x12 0.592336137) x14) (or (<= (+ x14 0.741643294) x12) (or (>= (- y12 0.0979356996) y14) (or (>= (- y14 0.0083976029) y12))))) 
(and (or (<= (+ x13 0.7732941406) x14) (or (<= (+ x14 0.741643294) x13) (or (>= (- y13 0.0377049642) y14) (or (>= (- y14 0.0083976029) y13))))) )))))))))))))))))))))))))))))))))))))))))))))))))))))))))))))))))))))))))))))))))))))))))))))))))))))))))))))))))))))))))))))))))))))))))))))))))))))))))))))))))))))))))))))))))))))))))))))))))))))))))))))))))))))))
(minimize c)
(check-sat)
(get-objectives)
(exit)
